outputs/case_202.model.txt
fhc_violation_or_risk = True
invest_in_futures = False
capital_reduction_approval_applied = False
invest_in_futures_trust = False
subsidiary_business_exceed_law = True
invest_in_futures_broker = False
invest_in_first_to_ninth_category = True
adjustment_extension_times = 0
adjustment_deadline_years = 0
shares_acquired = 100
invest_in_bill_finance = False
fhc_must_reduce_directors_to_comply = True
penalty_revoke_meeting_resolution = False
invest_in_foreign_financial_institution_approved = False
penalty_remove_director_or_supervisor = True
invest_in_bank = True
business_days_since_application = 0
fhc_must_dispose_shares_to_comply = False
notify_economic_ministry_revoke_registration = True
invest_in_credit_card = False
subsidiary_capital_reduction = False
shares_no_voting_right = 100
invest_in_insurance = False
invest_in_trust_investment_company = False
penalty_remove_manager_or_staff = True
invest_in_other_financial_related_approved = False
invest_in_securities_investment_trust = False
invest_in_reinsurance_company = False
invest_in_securities = False
invest_in_insurance_broker = False
adjustment_extension_years_per_time = 3
invest_in_fhc = True
invest_in_futures_advisor = False
invest_in_trust = False
invest_in_commercial_bank = True
penalty_suspend_subsidiary_business = False
invest_in_securities_firm = True
penalty_dispose_subsidiary_shares = True
invest_in_venture_capital = False
invest_in_futures_manager = True
penalty_other_measures = True
invest_in_securities_investment_advisor = False
invest_in_leveraged_trader = False
subsidiary_investment_exceed_law = True
invest_in_tenth_or_eleventh_category = True
penalty_revoke_license = False
invest_in_life_insurance = False
fhc_corrective_action_taken = True
fhc_order_dispose_illegal_investment = True
shares_excluded_from_total = 100
invest_in_professional_bank = False
fhc_must_stop_using_fhc_name = False
invest_in_insurance_agent = False
fhc_must_dissolve_and_liquidate = False
fhc_order_adjust = True
invest_in_property_insurance = True
fhc_officer_protects_shareholders_rights = True
investment_without_approval_prohibited = True
fhc_must_dispose_illegal_investment = True
revoke_license_dispose_shares_and_name = True
revoke_license_dispose_shares_or_dissolve = True
financial_inspection_report_management_defined = True
general_affairs_it_hr_defined = True
investment_futures_subtypes_ok = True
anti_money_laundering_and_terrorism_financing_defined = True
customer_data_confidentiality_defined = True
subsidiary_business_scope_ok = True
internal_control_established = True
fhc_must_adjust_within_deadline = True
adjustment_deadline_ok = True
fhc_officer_manager_conflict_prohibited = True
subsidiary_management_defined = True
investment_securities_subtypes_ok = True
remove_director_supervisor_notify_economic_ministry = True
fhc_violation_penalties = True
conflict_of_interest_rules_defined = True
fhc_officer_conflict_of_interest = False
investment_guidelines_defined = True
subsidiary_business_management = True
equity_management_defined = True
investment_shares_no_voting_right = True
fhc_officer_maintains_group_balance = True
subsidiary_business_investment = True
major_incident_handling_defined = True
fhc_officer_multiple_positions = True
fhc_officer_internal_control_compliant = True
internal_control_subsidiary_management_defined = True
financial_report_process_defined = True
investment_approval_timing_ok = True
investment_insurance_subtypes_ok = True
fhc_officer_multiple_positions_ok = True
fhc_officer_maintains_supervision_mechanism = True
internal_control_established_and_executed = True
investment_bank_subtypes_ok = True
board_supervises_operational_results = True
board_of_directors_risk_responsibility = True
other_business_rules_defined = True
internal_control_policies_and_procedures_defined = True
fhc_officer_positions_effective = True
board_recognizes_operational_risks = True
subsidiary_business_or_investment_exceed_law = True
organization_rules_defined = True
financial_consumer_protection_management_defined = True
investment_approved = True
board_responsible_for_internal_control = True
internal_control_effective = True
fhc_officer_or_staff_is_manager_of_venture_invested_company = False
subsidiary_capital_reduction_approval_required = True
fhc_violation_corrective_actions = True
penalty = False
business_guidelines_defined = True
external_information_disclosure_defined = True